(set-logic QF_S)
(declare-fun var0 () String)
(declare-fun var1 () String)
(declare-fun var2 () String)
(declare-fun var3 () String)
(declare-fun var4 () String)
(declare-fun var5 () String)
(declare-fun var6 () String)
(declare-fun var7 () String)
(declare-fun var8 () String)
(declare-fun var9 () String)
(declare-fun var10 () String)
(declare-fun var11 () String)
(declare-fun var12 () String)
(declare-fun var13 () String)
(declare-fun var14 () String)
(declare-fun var15 () String)
(declare-fun var16 () String)
(declare-fun var17 () String)
(declare-fun var18 () String)
(declare-fun var19 () String)
(declare-fun var20 () String)
(declare-fun var21 () String)
(declare-fun var22 () String)
(declare-fun var23 () String)
(declare-fun var24 () String)
(declare-fun var25 () String)
(declare-fun var26 () String)
(declare-fun var27 () String)
(declare-fun var28 () String)
(declare-fun var29 () String)
(declare-fun var30 () String)
(declare-fun var31 () String)
(declare-fun var32 () String)
(declare-fun var33 () String)
(declare-fun var34 () String)
(declare-fun var35 () String)
(declare-fun var36 () String)
(declare-fun var37 () String)
(declare-fun var38 () String)
(declare-fun var39 () String)
(declare-fun var40 () String)
(declare-fun var41 () String)
(declare-fun var42 () String)
(declare-fun var43 () String)
(declare-fun var44 () String)
(declare-fun var45 () String)
(declare-fun var46 () String)
(declare-fun var47 () String)
(declare-fun var48 () String)
(declare-fun var49 () String)
(declare-fun var50 () String)
(declare-fun var51 () String)
(declare-fun var52 () String)
(declare-fun var53 () String)
(declare-fun var54 () String)
(declare-fun var55 () String)
(declare-fun var56 () String)
(declare-fun var57 () String)
(declare-fun var58 () String)
(declare-fun var59 () String)
(declare-fun var60 () String)
(assert (= var0 (Concat var1 var2)))
(assert (= var2 (Concat var3 var4)))
(assert (= var4 (Concat var5 var6)))
(assert (= var6 (Concat var7 var8)))
(assert (= var8 (Concat var9 var10)))
(assert (= var10 (Concat var11 var12)))
(assert (= var12 (Concat var13 var14)))
(assert (= var14 (Concat var15 var16)))
(assert (= var16 (Concat var17 var18)))
(assert (= var18 (Concat var19 var20)))
(assert (= var20 (Concat var21 var22)))
(assert (= var22 (Concat var23 var24)))
(assert (= var24 (Concat var25 var26)))
(assert (= var26 (Concat var27 var28)))
(assert (= var28 (Concat var29 var30)))
(assert (= var30 (Concat var31 var32)))
(assert (= var32 (Concat var33 var34)))
(assert (= var34 (Concat var35 var36)))
(assert (= var36 (Concat var37 var38)))
(assert (= var38 (Concat var39 var40)))
(assert (= var40 (Concat var41 var42)))
(assert (= var42 (Concat var43 var44)))
(assert (= var44 (Concat var45 var46)))
(assert (= var46 (Concat var47 var48)))
(assert (= var48 (Concat var49 var50)))
(assert (= var50 (Concat var51 var52)))
(assert (= var52 (Concat var53 var54)))
(assert (= var54 (Concat var55 var56)))
(assert (= var56 (Concat var57 var58)))
(assert (= var58 (Concat var59 var60)))
(assert (= var0 "solution"))
(assert (= "?" (CharAt var32 23)))
(assert (= "X" (CharAt var39 231)))
(assert (= "0" (CharAt var46 183)))
(assert (= "k" (CharAt var7 564)))
(assert (= "o" (CharAt var8 524)))
(assert (= "c" (CharAt var22 392)))
(assert (= "?" (CharAt var58 963)))
(assert (= "-" (CharAt var57 625)))
(assert (= "Q" (CharAt var33 681)))
(assert (= "@" (CharAt var30 187)))
(assert (= "<" (CharAt var49 222)))
(assert (= "2" (CharAt var39 147)))
(assert (= "8" (CharAt var9 802)))
(assert (= "4" (CharAt var11 106)))
(assert (= "x" (CharAt var44 361)))
(assert (= "E" (CharAt var1 687)))
(assert (= "d" (CharAt var35 368)))
(assert (= "L" (CharAt var38 411)))
(assert (= "8" (CharAt var12 406)))
(assert (= "E" (CharAt var26 31)))
(assert (= "1" (CharAt var7 163)))
(assert (= ">" (CharAt var42 920)))
(assert (= "/" (CharAt var20 963)))
(assert (= "4" (CharAt var4 261)))
(assert (= ";" (CharAt var29 284)))
(assert (= "6" (CharAt var21 833)))
(assert (= "w" (CharAt var41 716)))
(assert (= "X" (CharAt var9 522)))
(assert (= "s" (CharAt var43 861)))
(assert (= "5" (CharAt var55 845)))
(assert (= "z" (CharAt var32 805)))
(assert (= "N" (CharAt var35 202)))
(assert (= "A" (CharAt var9 956)))
(assert (= "j" (CharAt var40 838)))
(assert (= "L" (CharAt var6 457)))
(assert (= "C" (CharAt var18 454)))
(assert (= "\\" (CharAt var21 526)))
(assert (= "S" (CharAt var39 180)))
(assert (= "P" (CharAt var48 204)))
(assert (= "s" (CharAt var60 703)))
(assert (= "G" (CharAt var25 614)))
(assert (= "4" (CharAt var12 211)))
(assert (= "U" (CharAt var40 253)))
(assert (= ":" (CharAt var28 384)))
(assert (= "<" (CharAt var5 406)))
(assert (= "1" (CharAt var36 505)))
(assert (= "^" (CharAt var38 203)))
(assert (= "2" (CharAt var25 972)))
(assert (= "j" (CharAt var49 785)))
(assert (= "8" (CharAt var20 136)))
(assert (= "f" (CharAt var57 755)))
(assert (= "s" (CharAt var2 272)))
(assert (= "K" (CharAt var31 616)))
(assert (= "W" (CharAt var31 796)))
(assert (= "\"" (CharAt var46 1000)))
(assert (= "d" (CharAt var56 42)))
(assert (= "q" (CharAt var6 159)))
(assert (= "-" (CharAt var48 917)))
(assert (= "T" (CharAt var2 929)))
(assert (= "+" (CharAt var47 247)))
(assert (= "E" (CharAt var27 527)))
(assert (= "c" (CharAt var42 607)))
(assert (= ">" (CharAt var49 40)))
(assert (= "4" (CharAt var55 474)))
(assert (= "5" (CharAt var56 582)))
(assert (= "t" (CharAt var41 83)))
(assert (= "B" (CharAt var43 824)))
(assert (= ";" (CharAt var8 557)))
(assert (= "k" (CharAt var32 512)))
(assert (= "Q" (CharAt var2 445)))
(assert (= "g" (CharAt var30 263)))
(assert (= "\\" (CharAt var57 931)))
(assert (= "'" (CharAt var51 832)))
(assert (= "]" (CharAt var22 769)))
(assert (= "B" (CharAt var48 835)))
(assert (= "T" (CharAt var56 806)))
(assert (= "-" (CharAt var23 935)))
(assert (= "n" (CharAt var29 987)))
(assert (= "j" (CharAt var25 847)))
(assert (= "-" (CharAt var35 354)))
(assert (= ")" (CharAt var21 965)))
(assert (= "k" (CharAt var38 188)))
(assert (= "d" (CharAt var27 291)))
(assert (= "9" (CharAt var59 97)))
(assert (= "/" (CharAt var23 510)))
(assert (= "k" (CharAt var47 447)))
(assert (= "/" (CharAt var24 267)))
(assert (= "'" (CharAt var35 483)))
(assert (= "9" (CharAt var40 458)))
(assert (= "$" (CharAt var53 449)))
(assert (= "8" (CharAt var58 909)))
(assert (= "C" (CharAt var33 18)))
(assert (= "A" (CharAt var25 670)))
(assert (= "T" (CharAt var9 62)))
(assert (= "p" (CharAt var1 856)))
(assert (= "R" (CharAt var5 761)))
(assert (= "g" (CharAt var54 243)))
(assert (= "'" (CharAt var17 166)))
(assert (= "q" (CharAt var7 524)))
(assert (= "B" (CharAt var34 900)))
(assert (= "H" (CharAt var57 206)))
(assert (= "@" (CharAt var24 699)))
(assert (= "W" (CharAt var53 627)))
(assert (= "w" (CharAt var2 207)))
(assert (= "?" (CharAt var29 184)))
(assert (= "d" (CharAt var28 702)))
(assert (= "`" (CharAt var10 207)))
(assert (= "]" (CharAt var48 103)))
(assert (= "J" (CharAt var28 198)))
(assert (= "P" (CharAt var54 584)))
(assert (= "<" (CharAt var44 400)))
(assert (= ")" (CharAt var53 281)))
(assert (= "}" (CharAt var41 823)))
(assert (= "|" (CharAt var34 636)))
(assert (= "l" (CharAt var10 546)))
(assert (= "," (CharAt var32 531)))
(assert (= ";" (CharAt var52 849)))
(assert (= "q" (CharAt var52 408)))
(assert (= "]" (CharAt var29 747)))
(assert (= "W" (CharAt var6 85)))
(assert (= "D" (CharAt var50 250)))
(assert (= "h" (CharAt var6 731)))
(assert (= "v" (CharAt var44 134)))
(assert (= "^" (CharAt var22 576)))
(assert (= "*" (CharAt var18 970)))
(assert (= "." (CharAt var10 3)))
(assert (= "X" (CharAt var30 909)))
(assert (= "<" (CharAt var30 449)))
(assert (= "j" (CharAt var4 718)))
(assert (= "'" (CharAt var36 992)))
(assert (= "-" (CharAt var32 819)))
(assert (= "f" (CharAt var43 262)))
(assert (= "d" (CharAt var47 131)))
(assert (= "n" (CharAt var41 559)))
(assert (= "p" (CharAt var20 707)))
(assert (= "2" (CharAt var52 824)))
(assert (= "n" (CharAt var34 96)))
(assert (= "t" (CharAt var55 835)))
(assert (= "=" (CharAt var54 552)))
(assert (= "9" (CharAt var19 365)))
(assert (= "-" (CharAt var8 906)))
(assert (= "a" (CharAt var2 436)))
(assert (= "T" (CharAt var34 10)))
(assert (= "N" (CharAt var33 722)))
(assert (= "l" (CharAt var14 843)))
(assert (= "8" (CharAt var11 420)))
(assert (= "B" (CharAt var20 831)))
(assert (= "W" (CharAt var28 694)))
(assert (= "c" (CharAt var28 836)))
(assert (= "U" (CharAt var27 699)))
(assert (= "o" (CharAt var26 907)))
(assert (= "A" (CharAt var31 189)))
(assert (= ">" (CharAt var16 196)))
(assert (= "t" (CharAt var32 844)))
(assert (= "G" (CharAt var56 268)))
(assert (= ":" (CharAt var9 730)))
(assert (= "(" (CharAt var55 802)))
(assert (= "Z" (CharAt var20 183)))
(assert (= "p" (CharAt var32 386)))
(assert (= "T" (CharAt var40 832)))
(assert (= ">" (CharAt var56 270)))
(assert (= "}" (CharAt var38 755)))
(assert (= "r" (CharAt var52 446)))
(assert (= ">" (CharAt var55 271)))
(assert (= "m" (CharAt var29 969)))
(assert (= "r" (CharAt var20 364)))
(assert (= "J" (CharAt var60 714)))
(assert (= "_" (CharAt var29 344)))
(assert (= "(" (CharAt var22 591)))
(assert (= "[" (CharAt var20 459)))
(assert (= "9" (CharAt var27 386)))
(assert (= "\\" (CharAt var15 378)))
(assert (= "1" (CharAt var45 395)))
(assert (= "#" (CharAt var5 261)))
(assert (= "R" (CharAt var9 945)))
(assert (= "K" (CharAt var57 144)))
(assert (= "W" (CharAt var33 614)))
(assert (= "m" (CharAt var36 379)))
(assert (= "p" (CharAt var37 829)))
(assert (= "{" (CharAt var59 999)))
(assert (= "5" (CharAt var47 868)))
(assert (= "U" (CharAt var2 162)))
(assert (= "*" (CharAt var20 951)))
(assert (= "b" (CharAt var40 265)))
(assert (= "}" (CharAt var38 427)))
(assert (= "U" (CharAt var59 717)))
(assert (= "(" (CharAt var9 574)))
(assert (= "/" (CharAt var46 942)))
(assert (= "T" (CharAt var21 891)))
(assert (= "S" (CharAt var48 804)))
(assert (= "{" (CharAt var32 469)))
(assert (= "b" (CharAt var28 840)))
(assert (= ":" (CharAt var54 340)))
(assert (= "g" (CharAt var29 98)))
(assert (= "T" (CharAt var12 380)))
(assert (= ":" (CharAt var51 670)))
(assert (= "~" (CharAt var43 941)))
(assert (= "}" (CharAt var12 384)))
(assert (= "*" (CharAt var16 679)))
(assert (= "c" (CharAt var21 632)))
(assert (= "!" (CharAt var35 3)))
(assert (= "#" (CharAt var17 950)))
(assert (= "T" (CharAt var3 814)))
(assert (= "@" (CharAt var57 461)))
(assert (= "m" (CharAt var56 690)))
(assert (= "1" (CharAt var44 960)))
(assert (= "/" (CharAt var29 750)))
(assert (= "7" (CharAt var12 420)))
(assert (= "0" (CharAt var18 62)))
(assert (= "T" (CharAt var10 168)))
(assert (= "&" (CharAt var44 791)))
(assert (= "u" (CharAt var7 259)))
(assert (= "z" (CharAt var12 141)))
(assert (= "q" (CharAt var17 682)))
(assert (= "s" (CharAt var22 914)))
(assert (= "p" (CharAt var36 823)))
(assert (= "L" (CharAt var17 644)))
(assert (= "c" (CharAt var51 528)))
(assert (= "-" (CharAt var1 137)))
(assert (= "'" (CharAt var48 410)))
(assert (= "," (CharAt var18 721)))
(assert (= "I" (CharAt var59 443)))
(assert (= "n" (CharAt var44 250)))
(assert (= "G" (CharAt var27 268)))
(assert (= "9" (CharAt var53 204)))
(assert (= "1" (CharAt var60 60)))
(assert (= "Y" (CharAt var48 570)))
(assert (= "s" (CharAt var18 452)))
(assert (= "N" (CharAt var25 134)))
(assert (= "`" (CharAt var45 22)))
(assert (= "}" (CharAt var38 353)))
(assert (= "M" (CharAt var36 554)))
(assert (= "@" (CharAt var8 786)))
(assert (= "p" (CharAt var19 728)))
(assert (= "K" (CharAt var6 43)))
(assert (= "H" (CharAt var38 819)))
(assert (= "M" (CharAt var7 938)))
(assert (= "Z" (CharAt var56 447)))
(assert (= "n" (CharAt var21 259)))
(assert (= ")" (CharAt var59 847)))
(assert (= "9" (CharAt var0 204)))
(assert (= "=" (CharAt var18 426)))
(assert (= "2" (CharAt var51 759)))
(assert (= "_" (CharAt var15 796)))
(assert (= "6" (CharAt var26 118)))
(assert (= "[" (CharAt var28 349)))
(assert (= "t" (CharAt var43 139)))
(assert (= "y" (CharAt var22 555)))
(assert (= "r" (CharAt var13 303)))
(assert (= "\"" (CharAt var26 440)))
(assert (= ";" (CharAt var21 522)))
(assert (= "<" (CharAt var59 407)))
(assert (= "#" (CharAt var17 389)))
(assert (= "N" (CharAt var4 781)))
(assert (= "g" (CharAt var13 339)))
(assert (= "q" (CharAt var52 530)))
(assert (= "v" (CharAt var2 312)))
(assert (= ":" (CharAt var20 436)))
(assert (= "i" (CharAt var41 401)))
(assert (= "*" (CharAt var8 770)))
(assert (= "," (CharAt var43 479)))
(assert (= "]" (CharAt var50 899)))
(assert (= "@" (CharAt var16 793)))
(assert (= "5" (CharAt var46 191)))
(assert (= ">" (CharAt var45 231)))
(assert (= "F" (CharAt var0 247)))
(assert (= "i" (CharAt var41 429)))
(assert (= "x" (CharAt var6 124)))
(assert (= "W" (CharAt var13 819)))
(assert (= "O" (CharAt var60 316)))
(assert (= "i" (CharAt var24 729)))
(assert (= "W" (CharAt var46 434)))
(assert (= "." (CharAt var54 707)))
(assert (= "S" (CharAt var60 755)))
(assert (= "e" (CharAt var46 534)))
(assert (= "\\" (CharAt var58 676)))
(assert (= "~" (CharAt var9 470)))
(assert (= "5" (CharAt var54 78)))
(assert (= "I" (CharAt var2 135)))
(assert (= "*" (CharAt var17 240)))
(assert (= "@" (CharAt var8 179)))
(assert (= "t" (CharAt var46 451)))
(assert (= "j" (CharAt var1 502)))
(assert (= "U" (CharAt var22 797)))
(assert (= "M" (CharAt var5 21)))
(assert (= "p" (CharAt var26 848)))
(assert (= "L" (CharAt var56 602)))
(assert (= "S" (CharAt var34 275)))
(assert (= "W" (CharAt var59 569)))
(assert (= "x" (CharAt var31 249)))
(assert (= "}" (CharAt var55 172)))
(assert (= "F" (CharAt var8 797)))
(assert (= "E" (CharAt var31 599)))
(assert (= "9" (CharAt var43 737)))
(assert (= "q" (CharAt var36 56)))
(assert (= "`" (CharAt var43 758)))
(assert (= "V" (CharAt var33 166)))
(assert (= "K" (CharAt var56 154)))
(assert (= "0" (CharAt var16 860)))
(assert (= "b" (CharAt var48 388)))
(assert (= "M" (CharAt var29 720)))
(assert (= "H" (CharAt var37 560)))
(assert (= "L" (CharAt var8 386)))
(assert (= "\"" (CharAt var15 7)))
(assert (= "F" (CharAt var15 780)))
(assert (= "&" (CharAt var48 596)))
(assert (= "D" (CharAt var56 642)))
(assert (= "l" (CharAt var16 266)))
(assert (= "t" (CharAt var23 645)))
(assert (= "p" (CharAt var2 269)))
(assert (= "K" (CharAt var56 291)))
(assert (= "M" (CharAt var46 594)))
(assert (= "2" (CharAt var44 955)))
(assert (= "s" (CharAt var19 713)))
(assert (= "b" (CharAt var7 976)))
(assert (= "o" (CharAt var14 899)))
(assert (= "L" (CharAt var55 457)))
(assert (= "z" (CharAt var35 714)))
(assert (= "c" (CharAt var52 688)))
(assert (= "s" (CharAt var30 129)))
(assert (= "," (CharAt var50 343)))
(assert (= "C" (CharAt var1 865)))
(assert (= "&" (CharAt var48 425)))
(assert (= "5" (CharAt var33 426)))
(assert (= "=" (CharAt var8 25)))
(assert (= "=" (CharAt var41 348)))
(assert (= "N" (CharAt var6 74)))
(assert (= ")" (CharAt var48 147)))
(assert (= "R" (CharAt var54 411)))
(assert (= "/" (CharAt var1 116)))
(assert (= "r" (CharAt var25 154)))
(assert (= "O" (CharAt var25 650)))
(assert (= "C" (CharAt var55 266)))
(assert (= "4" (CharAt var16 1)))
(assert (= "_" (CharAt var9 521)))
(assert (= "F" (CharAt var0 751)))
(assert (= "+" (CharAt var30 835)))
(assert (= "8" (CharAt var57 763)))
(assert (= "A" (CharAt var30 920)))
(assert (= "0" (CharAt var48 710)))
(assert (= "m" (CharAt var38 529)))
(assert (= "]" (CharAt var6 886)))
(assert (= "h" (CharAt var53 725)))
(assert (= "l" (CharAt var54 118)))
(assert (= "}" (CharAt var7 961)))
(assert (= "U" (CharAt var23 698)))
(assert (= "1" (CharAt var58 442)))
(assert (= "^" (CharAt var42 194)))
(assert (= "5" (CharAt var1 445)))
(assert (= "o" (CharAt var16 516)))
(assert (= "C" (CharAt var31 925)))
(assert (= "c" (CharAt var29 194)))
(assert (= "," (CharAt var35 447)))
(assert (= "y" (CharAt var49 219)))
(assert (= "\\" (CharAt var5 428)))
(assert (= "?" (CharAt var2 912)))
(assert (= "s" (CharAt var22 893)))
(assert (= "0" (CharAt var38 914)))
(assert (= "&" (CharAt var27 562)))
(assert (= "O" (CharAt var54 418)))
(assert (= "c" (CharAt var28 992)))
(assert (= "o" (CharAt var60 716)))
(assert (= "L" (CharAt var30 768)))
(assert (= ";" (CharAt var31 675)))
(assert (= "C" (CharAt var3 968)))
(assert (= "Z" (CharAt var25 415)))
(assert (= "I" (CharAt var26 426)))
(assert (= "$" (CharAt var3 303)))
(assert (= "\"" (CharAt var35 698)))
(assert (= "S" (CharAt var53 861)))
(assert (= "g" (CharAt var6 506)))
(assert (= ":" (CharAt var28 468)))
(assert (= "4" (CharAt var9 782)))
(assert (= "_" (CharAt var17 179)))
(assert (= "0" (CharAt var26 248)))
(assert (= "." (CharAt var11 230)))
(assert (= "k" (CharAt var20 497)))
(assert (= "\\" (CharAt var40 893)))
(assert (= "P" (CharAt var36 711)))
(assert (= "X" (CharAt var52 486)))
(assert (= "r" (CharAt var12 319)))
(assert (= "q" (CharAt var14 506)))
(assert (= "J" (CharAt var57 569)))
(assert (= "," (CharAt var21 645)))
(assert (= ";" (CharAt var19 485)))
(assert (= "x" (CharAt var59 45)))
(assert (= "j" (CharAt var40 733)))
(assert (= "\\" (CharAt var20 67)))
(assert (= "R" (CharAt var52 249)))
(assert (= "p" (CharAt var33 297)))
(assert (= "c" (CharAt var52 710)))
(assert (= "[" (CharAt var10 478)))
(assert (= "l" (CharAt var4 486)))
(assert (= "{" (CharAt var7 225)))
(assert (= "`" (CharAt var16 227)))
(assert (= "F" (CharAt var1 55)))
(assert (= "^" (CharAt var30 602)))
(assert (= "W" (CharAt var17 517)))
(assert (= "/" (CharAt var26 547)))
(assert (= "." (CharAt var56 597)))
(assert (= ":" (CharAt var4 901)))
(assert (= "X" (CharAt var15 914)))
(assert (= "0" (CharAt var59 755)))
(assert (= "x" (CharAt var42 970)))
(assert (= "B" (CharAt var39 641)))
(assert (= "0" (CharAt var17 948)))
(assert (= "-" (CharAt var5 464)))
(assert (= ">" (CharAt var55 806)))
(assert (= ")" (CharAt var50 804)))
(assert (= "-" (CharAt var56 679)))
(assert (= "R" (CharAt var9 835)))
(assert (= "{" (CharAt var36 488)))
(assert (= "c" (CharAt var15 412)))
(assert (= "k" (CharAt var43 114)))
(assert (= "j" (CharAt var20 732)))
(assert (= "P" (CharAt var32 425)))
(assert (= "," (CharAt var13 278)))
(assert (= "P" (CharAt var43 748)))
(assert (= "3" (CharAt var20 417)))
(assert (= "$" (CharAt var48 231)))
(assert (= "b" (CharAt var39 276)))
(assert (= "X" (CharAt var9 650)))
(assert (= "~" (CharAt var44 290)))
(assert (= "I" (CharAt var7 484)))
(assert (= "9" (CharAt var3 361)))
(assert (= "0" (CharAt var35 141)))
(assert (= "u" (CharAt var39 986)))
(assert (= "d" (CharAt var29 250)))
(assert (= "?" (CharAt var55 264)))
(assert (= "B" (CharAt var9 424)))
(assert (= "{" (CharAt var46 285)))
(assert (= "&" (CharAt var12 891)))
(assert (= "I" (CharAt var31 255)))
(assert (= "#" (CharAt var31 633)))
(assert (= "4" (CharAt var44 210)))
(assert (= "p" (CharAt var40 6)))
(assert (= "2" (CharAt var17 614)))
(assert (= "+" (CharAt var29 623)))
(assert (= "v" (CharAt var34 721)))
(assert (= "}" (CharAt var9 812)))
(assert (= "P" (CharAt var4 444)))
(assert (= "+" (CharAt var29 364)))
(assert (= "W" (CharAt var4 476)))
(assert (= "g" (CharAt var37 889)))
(assert (= "a" (CharAt var0 288)))
(assert (= "z" (CharAt var20 176)))
(assert (= "e" (CharAt var21 221)))
(assert (= "_" (CharAt var9 485)))
(assert (= "u" (CharAt var25 891)))
(assert (= "," (CharAt var35 405)))
(assert (= "K" (CharAt var48 787)))
(assert (= "<" (CharAt var38 626)))
(assert (= "2" (CharAt var42 395)))
(assert (= "?" (CharAt var40 226)))
(assert (= ":" (CharAt var41 454)))
(assert (= "%" (CharAt var43 321)))
(assert (= "b" (CharAt var28 366)))
(assert (= "@" (CharAt var57 124)))
(assert (= "Z" (CharAt var5 273)))
(assert (= "p" (CharAt var31 722)))
(assert (= "9" (CharAt var4 814)))
(assert (= "Z" (CharAt var18 265)))
(assert (= "C" (CharAt var0 423)))
(assert (= "/" (CharAt var18 698)))
(assert (= "c" (CharAt var48 173)))
(assert (= "8" (CharAt var23 700)))
(assert (= "j" (CharAt var43 639)))
(assert (= "9" (CharAt var30 398)))
(assert (= "|" (CharAt var45 237)))
(assert (= "$" (CharAt var42 282)))
(assert (= "p" (CharAt var33 73)))
(assert (= "0" (CharAt var25 555)))
(assert (= "G" (CharAt var54 325)))
(assert (= "c" (CharAt var12 84)))
(assert (= "e" (CharAt var16 97)))
(assert (= "B" (CharAt var11 198)))
(assert (= "~" (CharAt var48 796)))
(assert (= "^" (CharAt var2 547)))
(assert (= "r" (CharAt var60 92)))
(assert (= "@" (CharAt var14 693)))
(assert (= "Z" (CharAt var57 836)))
(assert (= "}" (CharAt var8 195)))
(assert (= "V" (CharAt var51 490)))
(assert (= "V" (CharAt var5 932)))
(assert (= "Z" (CharAt var15 609)))
(assert (= "U" (CharAt var29 166)))
(assert (= "t" (CharAt var12 1)))
(assert (= "?" (CharAt var11 314)))
(assert (= "R" (CharAt var58 260)))
(assert (= "Z" (CharAt var30 695)))
(assert (= "`" (CharAt var33 601)))
(assert (= "w" (CharAt var41 92)))
(assert (= "-" (CharAt var0 499)))
(assert (= "*" (CharAt var36 400)))
(assert (= "K" (CharAt var13 590)))
(assert (= "p" (CharAt var5 47)))
(assert (= "=" (CharAt var45 335)))
(assert (= "l" (CharAt var37 166)))
(assert (= "5" (CharAt var54 444)))
(assert (= ")" (CharAt var15 116)))
(assert (= "u" (CharAt var56 199)))
(assert (= "l" (CharAt var11 80)))
(assert (= "@" (CharAt var14 922)))
(assert (= "i" (CharAt var56 554)))
(assert (= "z" (CharAt var27 20)))
(assert (= ":" (CharAt var57 853)))
(assert (= "/" (CharAt var45 550)))
(assert (= "w" (CharAt var55 411)))
(assert (= "F" (CharAt var44 415)))
(assert (= "A" (CharAt var57 329)))
(assert (= "6" (CharAt var33 802)))
(assert (= "z" (CharAt var33 429)))
(assert (= "g" (CharAt var20 998)))
(assert (= "P" (CharAt var35 376)))
(assert (= "a" (CharAt var45 487)))
(assert (= "e" (CharAt var54 742)))
(assert (= "E" (CharAt var24 752)))
(assert (= "$" (CharAt var18 449)))
(assert (= "\\" (CharAt var39 774)))
(assert (= "\"" (CharAt var45 836)))
(assert (= "(" (CharAt var19 514)))
(assert (= "Z" (CharAt var26 832)))
(assert (= "'" (CharAt var45 632)))
(assert (= "5" (CharAt var47 365)))
(assert (= "{" (CharAt var53 629)))
(assert (= "." (CharAt var1 139)))
(assert (= "-" (CharAt var60 948)))
(assert (= "7" (CharAt var2 233)))
(assert (= "u" (CharAt var13 133)))
(assert (= "U" (CharAt var5 890)))
(assert (= "U" (CharAt var17 812)))
(assert (= "n" (CharAt var36 478)))
(assert (= "U" (CharAt var29 476)))
(assert (= "^" (CharAt var25 199)))
(assert (= "f" (CharAt var31 302)))
(assert (= "g" (CharAt var23 427)))
(assert (= "S" (CharAt var11 506)))
(assert (= "r" (CharAt var41 508)))
(assert (= "l" (CharAt var23 814)))
(assert (= "d" (CharAt var40 519)))
(assert (= ":" (CharAt var4 397)))
(assert (= "b" (CharAt var58 851)))
(assert (= "S" (CharAt var17 689)))
(assert (= "4" (CharAt var15 520)))
(assert (= "(" (CharAt var13 115)))
(assert (= "w" (CharAt var51 453)))
(assert (= "c" (CharAt var44 680)))
(assert (= "@" (CharAt var6 741)))
(assert (= "(" (CharAt var35 307)))
(assert (= "V" (CharAt var0 417)))
(assert (= "\\" (CharAt var9 50)))
(assert (= "r" (CharAt var5 361)))
(assert (= "%" (CharAt var3 621)))
(assert (= "^" (CharAt var35 732)))
(assert (= "_" (CharAt var0 743)))
(assert (= "v" (CharAt var21 951)))
(assert (= ")" (CharAt var47 471)))
(assert (= "Y" (CharAt var17 930)))
(assert (= "3" (CharAt var25 359)))
(assert (= "(" (CharAt var25 821)))
(assert (= "S" (CharAt var60 107)))
(assert (= ")" (CharAt var28 33)))
(assert (= "=" (CharAt var18 988)))
(assert (= "n" (CharAt var13 418)))
(assert (= "1" (CharAt var60 940)))
(assert (= "+" (CharAt var56 374)))
(assert (= "\"" (CharAt var32 423)))
(assert (= ")" (CharAt var51 355)))
(assert (= "," (CharAt var13 203)))
(assert (= "g" (CharAt var19 568)))
(assert (= "r" (CharAt var10 713)))
(assert (= "+" (CharAt var58 695)))
(assert (= "," (CharAt var53 198)))
(assert (= "$" (CharAt var47 454)))
(assert (= "}" (CharAt var56 114)))
(assert (= "o" (CharAt var46 12)))
(assert (= "C" (CharAt var39 582)))
(assert (= ">" (CharAt var12 451)))
(assert (= "G" (CharAt var0 959)))
(assert (= "w" (CharAt var40 692)))
(assert (= "r" (CharAt var21 898)))
(assert (= "," (CharAt var33 17)))
(assert (= "y" (CharAt var30 264)))
(assert (= "g" (CharAt var23 765)))
(assert (= "P" (CharAt var13 916)))
(assert (= "C" (CharAt var59 745)))
(assert (= "%" (CharAt var6 719)))
(assert (= "P" (CharAt var30 583)))
(assert (= "C" (CharAt var38 155)))
(assert (= "D" (CharAt var16 678)))
(assert (= "$" (CharAt var44 111)))
(assert (= "a" (CharAt var26 133)))
(assert (= "U" (CharAt var9 343)))
(assert (= "\"" (CharAt var37 110)))
(assert (= "i" (CharAt var33 596)))
(assert (= "C" (CharAt var39 391)))
(assert (= "3" (CharAt var0 658)))
(assert (= "!" (CharAt var10 359)))
(assert (= "J" (CharAt var52 716)))
(assert (= "m" (CharAt var59 608)))
(assert (= "}" (CharAt var48 329)))
(assert (= "Y" (CharAt var13 641)))
(assert (= ":" (CharAt var1 29)))
(assert (= "#" (CharAt var56 405)))
(assert (= "]" (CharAt var31 578)))
(assert (= "F" (CharAt var0 890)))
(assert (= "8" (CharAt var46 890)))
(assert (= "z" (CharAt var59 240)))
(assert (= "6" (CharAt var30 924)))
(assert (= "A" (CharAt var18 614)))
(assert (= "S" (CharAt var54 700)))
(assert (= "+" (CharAt var7 685)))
(assert (= "." (CharAt var2 811)))
(assert (= "s" (CharAt var31 81)))
(assert (= "X" (CharAt var15 975)))
(assert (= "^" (CharAt var42 340)))
(assert (= "$" (CharAt var0 849)))
(assert (= "S" (CharAt var44 108)))
(assert (= "w" (CharAt var10 510)))
(assert (= "y" (CharAt var33 425)))
(assert (= "Y" (CharAt var14 622)))
(assert (= "v" (CharAt var23 653)))
(assert (= "c" (CharAt var48 411)))
(assert (= "1" (CharAt var48 716)))
(assert (= "J" (CharAt var46 184)))
(assert (= "Z" (CharAt var17 202)))
(assert (= "T" (CharAt var27 301)))
(assert (= "D" (CharAt var17 235)))
(assert (= "8" (CharAt var19 71)))
(assert (= "b" (CharAt var43 924)))
(assert (= "H" (CharAt var30 774)))
(assert (= "0" (CharAt var19 712)))
(assert (= "/" (CharAt var34 184)))
(assert (= "6" (CharAt var46 74)))
(assert (= "F" (CharAt var11 980)))
(assert (= "&" (CharAt var33 726)))
(assert (= "!" (CharAt var25 430)))
(assert (= "!" (CharAt var6 319)))
(assert (= ")" (CharAt var38 808)))
(assert (= "a" (CharAt var17 374)))
(assert (= ")" (CharAt var42 544)))
(assert (= "1" (CharAt var57 317)))
(assert (= "^" (CharAt var1 356)))
(assert (= "\\" (CharAt var3 847)))
(assert (= ":" (CharAt var48 348)))
(assert (= ">" (CharAt var58 270)))
(assert (= "V" (CharAt var49 582)))
(assert (= "p" (CharAt var8 285)))
(assert (= "'" (CharAt var40 837)))
(assert (= ":" (CharAt var33 500)))
(assert (= "{" (CharAt var6 6)))
(assert (= "0" (CharAt var0 837)))
(assert (= "!" (CharAt var46 570)))
(assert (= "j" (CharAt var5 199)))
(assert (= "`" (CharAt var23 896)))
(assert (= "~" (CharAt var17 427)))
(assert (= "?" (CharAt var37 673)))
(assert (= ">" (CharAt var24 372)))
(assert (= "`" (CharAt var1 782)))
(assert (= ";" (CharAt var5 61)))
(assert (= "o" (CharAt var18 992)))
(assert (= "p" (CharAt var43 138)))
(assert (= "l" (CharAt var28 863)))
(assert (= "y" (CharAt var37 562)))
(assert (= "L" (CharAt var33 277)))
(assert (= "3" (CharAt var57 787)))
(assert (= "L" (CharAt var55 744)))
(assert (= "V" (CharAt var17 53)))
(assert (= "C" (CharAt var17 756)))
(assert (= "[" (CharAt var7 493)))
(assert (= "3" (CharAt var31 865)))
(assert (= "h" (CharAt var56 498)))
(assert (= "H" (CharAt var45 351)))
(assert (= "Y" (CharAt var53 199)))
(assert (= "r" (CharAt var56 204)))
(assert (= "W" (CharAt var40 587)))
(assert (= "}" (CharAt var6 747)))
(assert (= "'" (CharAt var58 915)))
(assert (= "Z" (CharAt var31 699)))
(assert (= "|" (CharAt var24 242)))
(assert (= "~" (CharAt var7 336)))
(assert (= "Y" (CharAt var36 877)))
(assert (= "r" (CharAt var23 482)))
(assert (= "-" (CharAt var32 664)))
(assert (= "<" (CharAt var34 318)))
(assert (= "," (CharAt var35 104)))
(assert (= "D" (CharAt var31 906)))
(assert (= "p" (CharAt var40 264)))
(assert (= "p" (CharAt var16 848)))
(assert (= "M" (CharAt var30 98)))
(assert (= "e" (CharAt var8 112)))
(assert (= "?" (CharAt var17 437)))
(assert (= "p" (CharAt var6 236)))
(assert (= "J" (CharAt var39 645)))
(assert (= "g" (CharAt var60 772)))
(assert (= "1" (CharAt var25 815)))
(assert (= "9" (CharAt var47 243)))
(assert (= "`" (CharAt var22 68)))
(assert (= ">" (CharAt var20 746)))
(assert (= "p" (CharAt var32 210)))
(assert (= "j" (CharAt var53 207)))
(assert (= "T" (CharAt var11 280)))
(assert (= "`" (CharAt var39 837)))
(assert (= "l" (CharAt var11 996)))
(assert (= "5" (CharAt var26 885)))
(assert (= "O" (CharAt var44 796)))
(assert (= "p" (CharAt var0 529)))
(assert (= "1" (CharAt var25 137)))
(assert (= "E" (CharAt var7 252)))
(assert (= ":" (CharAt var28 667)))
(assert (= "Y" (CharAt var24 973)))
(assert (= "v" (CharAt var29 290)))
(assert (= "m" (CharAt var59 887)))
(assert (= "g" (CharAt var36 755)))
(assert (= "]" (CharAt var41 669)))
(assert (= "U" (CharAt var45 985)))
(assert (= "o" (CharAt var42 62)))
(assert (= "[" (CharAt var31 228)))
(assert (= "T" (CharAt var47 150)))
(assert (= "m" (CharAt var34 320)))
(assert (= "|" (CharAt var42 906)))
(assert (= "U" (CharAt var44 342)))
(assert (= "T" (CharAt var44 900)))
(assert (= "N" (CharAt var51 434)))
(assert (= "r" (CharAt var4 88)))
(assert (= ":" (CharAt var20 613)))
(assert (= "Z" (CharAt var3 945)))
(assert (= "N" (CharAt var56 141)))
(assert (= "2" (CharAt var25 407)))
(assert (= "}" (CharAt var5 945)))
(assert (= ":" (CharAt var22 674)))
(assert (= "W" (CharAt var32 999)))
(assert (= "I" (CharAt var37 561)))
(assert (= "f" (CharAt var20 401)))
(assert (= "?" (CharAt var21 137)))
(assert (= "z" (CharAt var4 187)))
(assert (= "F" (CharAt var38 814)))
(assert (= "p" (CharAt var3 94)))
(assert (= "[" (CharAt var24 778)))
(assert (= "4" (CharAt var54 189)))
(assert (= "Z" (CharAt var6 975)))
(assert (= "'" (CharAt var15 712)))
(assert (= "u" (CharAt var55 248)))
(assert (= "w" (CharAt var15 769)))
(assert (= ";" (CharAt var10 485)))
(assert (= "n" (CharAt var32 681)))
(assert (= "~" (CharAt var13 306)))
(assert (= "N" (CharAt var44 35)))
(assert (= "'" (CharAt var33 67)))
(assert (= "E" (CharAt var29 443)))
(assert (= "W" (CharAt var5 445)))
(assert (= "%" (CharAt var12 132)))
(assert (= "H" (CharAt var30 259)))
(assert (= "j" (CharAt var23 902)))
(assert (= "E" (CharAt var31 230)))
(assert (= "7" (CharAt var7 737)))
(assert (= "O" (CharAt var25 932)))
(assert (= "?" (CharAt var32 770)))
(assert (= "n" (CharAt var55 471)))
(assert (= "O" (CharAt var8 114)))
(assert (= "S" (CharAt var24 904)))
(assert (= "W" (CharAt var40 71)))
(assert (= "@" (CharAt var21 362)))
(assert (= "<" (CharAt var51 202)))
(assert (= "/" (CharAt var16 236)))
(assert (= "X" (CharAt var29 605)))
(assert (= "!" (CharAt var2 8)))
(assert (= "W" (CharAt var21 480)))
(assert (= "{" (CharAt var32 828)))
(assert (= "N" (CharAt var52 830)))
(assert (= "V" (CharAt var15 675)))
(assert (= "j" (CharAt var12 235)))
(assert (= "o" (CharAt var33 280)))
(assert (= "j" (CharAt var59 440)))
(assert (= "'" (CharAt var48 729)))
(assert (= "g" (CharAt var15 845)))
(assert (= "[" (CharAt var13 470)))
(assert (= "T" (CharAt var10 996)))
(assert (= "/" (CharAt var24 129)))
(assert (= "r" (CharAt var49 655)))
(assert (= "|" (CharAt var48 768)))
(assert (= "9" (CharAt var14 15)))
(assert (= "p" (CharAt var29 331)))
(assert (= "_" (CharAt var21 570)))
(assert (= "p" (CharAt var51 139)))
(assert (= "<" (CharAt var34 216)))
(assert (= "h" (CharAt var42 843)))
(assert (= "!" (CharAt var27 3)))
(assert (= "w" (CharAt var30 779)))
(assert (= "B" (CharAt var55 463)))
(assert (= "9" (CharAt var11 663)))
(assert (= "b" (CharAt var54 717)))
(assert (= "~" (CharAt var1 702)))
(assert (= "v" (CharAt var6 253)))
(assert (= "G" (CharAt var35 311)))
(assert (= "H" (CharAt var57 153)))
(assert (= "}" (CharAt var38 833)))
(assert (= "3" (CharAt var46 221)))
(assert (= "6" (CharAt var60 27)))
(assert (= "X" (CharAt var60 898)))
(assert (= "T" (CharAt var11 216)))
(assert (= "3" (CharAt var41 205)))
(assert (= "2" (CharAt var30 618)))
(assert (= "." (CharAt var0 37)))
(assert (= "G" (CharAt var56 484)))
(assert (= "%" (CharAt var0 430)))
(assert (= "d" (CharAt var31 527)))
(assert (= "0" (CharAt var57 503)))
(assert (= "0" (CharAt var51 465)))
(assert (= "k" (CharAt var1 171)))
(assert (= "@" (CharAt var50 110)))
(assert (= "k" (CharAt var14 983)))
(assert (= "J" (CharAt var52 229)))
(assert (= "/" (CharAt var14 253)))
(assert (= "i" (CharAt var58 418)))
(assert (= "j" (CharAt var49 30)))
(assert (= "%" (CharAt var3 191)))
(assert (= "#" (CharAt var30 503)))
(assert (= "(" (CharAt var26 931)))
(assert (= "u" (CharAt var28 418)))
(assert (= ")" (CharAt var56 4)))
(assert (= "k" (CharAt var11 639)))
(assert (= "Z" (CharAt var20 796)))
(assert (= "K" (CharAt var60 86)))
(assert (= "y" (CharAt var17 736)))
(assert (= "J" (CharAt var32 59)))
(assert (= "K" (CharAt var8 787)))
(assert (= "X" (CharAt var5 893)))
(assert (= ">" (CharAt var44 521)))
(assert (= "?" (CharAt var31 594)))
(assert (= "S" (CharAt var43 759)))
(assert (= "e" (CharAt var10 326)))
(assert (= "2" (CharAt var56 744)))
(assert (= "\"" (CharAt var51 773)))
(assert (= "a" (CharAt var35 811)))
(assert (= "%" (CharAt var47 227)))
(assert (= "M" (CharAt var20 287)))
(assert (= "S" (CharAt var54 337)))
(assert (= "I" (CharAt var18 883)))
(assert (= "S" (CharAt var22 81)))
(assert (= "$" (CharAt var42 933)))
(assert (= "I" (CharAt var38 140)))
(assert (= "W" (CharAt var30 874)))
(assert (= "v" (CharAt var11 415)))
(assert (= "D" (CharAt var48 832)))
(assert (= "F" (CharAt var8 90)))
(assert (= "b" (CharAt var45 142)))
(assert (= "w" (CharAt var59 836)))
(assert (= "+" (CharAt var41 188)))
(assert (= "j" (CharAt var24 938)))
(assert (= "M" (CharAt var33 877)))
(assert (= "8" (CharAt var9 718)))
(assert (= "z" (CharAt var9 697)))
(assert (= "w" (CharAt var18 180)))
(assert (= ")" (CharAt var19 692)))
(assert (= "r" (CharAt var20 354)))
(assert (= "}" (CharAt var55 682)))
(assert (= "=" (CharAt var60 146)))
(assert (= "X" (CharAt var40 123)))
(assert (= "k" (CharAt var60 700)))
(assert (= "-" (CharAt var19 318)))
(assert (= "4" (CharAt var21 298)))
(assert (= "B" (CharAt var23 416)))
(assert (= "o" (CharAt var47 947)))
(assert (= "q" (CharAt var10 774)))
(assert (= "3" (CharAt var33 757)))
(assert (= "{" (CharAt var35 663)))
(assert (= "u" (CharAt var59 958)))
(assert (= "X" (CharAt var4 918)))
(assert (= "t" (CharAt var52 55)))
(assert (= "," (CharAt var2 290)))
(assert (= "G" (CharAt var59 345)))
(assert (= "Q" (CharAt var30 897)))
(assert (= "B" (CharAt var18 451)))
(assert (= "-" (CharAt var17 328)))
(assert (= "X" (CharAt var54 854)))
(assert (= "c" (CharAt var39 990)))
(assert (= "o" (CharAt var40 70)))
(assert (= ";" (CharAt var51 405)))
(assert (= "," (CharAt var23 891)))
(assert (= "o" (CharAt var25 323)))
(assert (= "m" (CharAt var49 36)))
(assert (= "}" (CharAt var37 327)))
(assert (= "Q" (CharAt var23 980)))
(assert (= "`" (CharAt var38 560)))
(assert (= "j" (CharAt var29 459)))
(assert (= "X" (CharAt var37 463)))
(assert (= "z" (CharAt var51 442)))
(assert (= "k" (CharAt var7 887)))
(assert (= "w" (CharAt var31 720)))
(assert (= "f" (CharAt var26 116)))
(assert (= "D" (CharAt var7 695)))
(assert (= "%" (CharAt var2 283)))
(assert (= "J" (CharAt var56 735)))
(assert (= "/" (CharAt var4 372)))
(assert (= "h" (CharAt var5 312)))
(assert (= ":" (CharAt var47 216)))
(assert (= "'" (CharAt var52 644)))
(assert (= "T" (CharAt var46 305)))
(assert (= "3" (CharAt var23 199)))
(assert (= "s" (CharAt var18 174)))
(assert (= "5" (CharAt var53 361)))
(assert (= "t" (CharAt var26 315)))
(assert (= "p" (CharAt var44 868)))
(assert (= "Q" (CharAt var19 487)))
(assert (= "`" (CharAt var16 946)))
(assert (= "D" (CharAt var41 984)))
(assert (= "Z" (CharAt var23 188)))
(assert (= "7" (CharAt var46 509)))
(assert (= "1" (CharAt var21 485)))
(assert (= "k" (CharAt var48 203)))
(assert (= "3" (CharAt var8 568)))
(assert (= "d" (CharAt var18 540)))
(assert (= "z" (CharAt var58 566)))
(assert (= "y" (CharAt var53 120)))
(assert (= "k" (CharAt var54 137)))
(assert (= "4" (CharAt var18 289)))
(assert (= "o" (CharAt var29 543)))
(assert (= "o" (CharAt var26 811)))
(assert (= "t" (CharAt var19 827)))
(assert (= "." (CharAt var33 379)))
(assert (= "K" (CharAt var24 651)))
(assert (= "#" (CharAt var46 423)))
(assert (= "o" (CharAt var16 846)))
(assert (= "b" (CharAt var22 634)))
(assert (= "?" (CharAt var58 498)))
(assert (= ";" (CharAt var29 21)))
(assert (= "^" (CharAt var16 460)))
(assert (= ")" (CharAt var45 394)))
(assert (= "S" (CharAt var4 777)))
(assert (= "\\" (CharAt var2 396)))
(assert (= "A" (CharAt var20 234)))
(assert (= "|" (CharAt var53 832)))
(assert (= "+" (CharAt var3 294)))
(assert (= "c" (CharAt var45 951)))
(assert (= "f" (CharAt var37 720)))
(assert (= "y" (CharAt var32 754)))
(assert (= "*" (CharAt var5 17)))
(assert (= "~" (CharAt var50 217)))
(assert (= "N" (CharAt var20 758)))
(assert (= "K" (CharAt var18 41)))
(assert (= "p" (CharAt var44 751)))
(assert (= "h" (CharAt var33 730)))
(assert (= ")" (CharAt var39 375)))
(assert (= "O" (CharAt var7 212)))
(assert (= "C" (CharAt var12 822)))
(assert (= "3" (CharAt var16 859)))
(assert (= "^" (CharAt var25 84)))
(assert (= "{" (CharAt var40 151)))
(assert (= ">" (CharAt var50 803)))
(assert (= "q" (CharAt var51 796)))
(assert (= "}" (CharAt var43 620)))
(assert (= "h" (CharAt var0 113)))
(assert (= "T" (CharAt var8 701)))
(assert (= "[" (CharAt var47 320)))
(assert (= "d" (CharAt var32 218)))
(assert (= "W" (CharAt var16 896)))
(assert (= "?" (CharAt var4 407)))
(assert (= "/" (CharAt var54 432)))
(assert (= "u" (CharAt var17 864)))
(assert (= "s" (CharAt var34 960)))
(assert (= "Q" (CharAt var49 481)))
(assert (= "H" (CharAt var7 205)))
(assert (= "t" (CharAt var16 977)))
(assert (= "Z" (CharAt var54 454)))
(assert (= "<" (CharAt var0 42)))
(assert (= "2" (CharAt var11 892)))
(assert (= "b" (CharAt var40 366)))
(assert (= "$" (CharAt var9 421)))
(assert (= "X" (CharAt var8 993)))
(assert (= "G" (CharAt var41 547)))
(assert (= "," (CharAt var52 86)))
(assert (= "!" (CharAt var35 915)))
(assert (= "(" (CharAt var43 383)))
(assert (= "o" (CharAt var52 632)))
(assert (= "@" (CharAt var53 45)))
(assert (= "?" (CharAt var58 796)))
(assert (= "e" (CharAt var15 271)))
(assert (= "_" (CharAt var17 795)))
(assert (= ";" (CharAt var21 541)))
(assert (= "i" (CharAt var45 813)))
(assert (= "S" (CharAt var7 64)))
(assert (= "k" (CharAt var17 446)))
(assert (= "Q" (CharAt var5 976)))
(assert (= "#" (CharAt var28 91)))
(assert (= "d" (CharAt var44 351)))
(assert (= "O" (CharAt var38 152)))
(assert (= "!" (CharAt var47 937)))
(assert (= "," (CharAt var18 100)))
(assert (= "k" (CharAt var3 456)))
(assert (= "E" (CharAt var20 379)))
(assert (= "I" (CharAt var60 953)))
(assert (= ";" (CharAt var2 546)))
(assert (= "j" (CharAt var52 583)))
(assert (= "w" (CharAt var1 985)))
(assert (= "j" (CharAt var36 176)))
(assert (= "<" (CharAt var18 390)))
(assert (= "j" (CharAt var38 638)))
(assert (= "$" (CharAt var42 789)))
(assert (= "J" (CharAt var18 897)))
(assert (= "%" (CharAt var33 130)))
(check-sat)
(get-model)